10 10
14 24 24 68 70 61 18 73 27 57 
22 5 20 56 44 79 61 29 72 15 
47 92 29 63 24 53 87 11 83 37 
2 32 56 34 24 62 25 60 36 82 
66 8 7 84 36 80 27 53 44 15 
70 62 1 9 14 96 42 58 96 74 
23 10 68 11 82 61 54 2 41 4 
77 43 12 58 39 86 10 38 39 82 
82 87 14 93 13 99 99 28 10 17 
35 70 71 32 8 80 36 43 99 48 
